(set-info :smt-lib-version 2.6)
(set-info :category "crafted")
(set-logic QF_FF)
(define-sort FF0 () (_ FiniteField 52435875175126190479447740508185965837690552500527637822603658699938581184513))
(declare-fun x15 () Bool)
(declare-fun x14 () Bool)
(declare-fun x13 () Bool)
(declare-fun x12 () Bool)
(declare-fun x11 () Bool)
(declare-fun x10 () Bool)
(declare-fun x9 () Bool)
(declare-fun x8 () Bool)
(declare-fun x7 () Bool)
(declare-fun x6 () Bool)
(declare-fun x5 () Bool)
(declare-fun x4 () Bool)
(declare-fun x3 () Bool)
(declare-fun x2 () Bool)
(declare-fun x1 () Bool)
(declare-fun x0 () Bool)
(declare-fun return_n15 () FF0)
(declare-fun x15_n13 () FF0)
(declare-fun mul_n30 () FF0)
(declare-fun x14_n5 () FF0)
(declare-fun mul_n29 () FF0)
(declare-fun x13_n7 () FF0)
(declare-fun mul_n28 () FF0)
(declare-fun x12_n0 () FF0)
(declare-fun mul_n27 () FF0)
(declare-fun x11_n10 () FF0)
(declare-fun mul_n26 () FF0)
(declare-fun x10_n3 () FF0)
(declare-fun mul_n25 () FF0)
(declare-fun x9_n8 () FF0)
(declare-fun mul_n24 () FF0)
(declare-fun mul_n23 () FF0)
(declare-fun x7_n12 () FF0)
(declare-fun mul_n22 () FF0)
(declare-fun x6_n14 () FF0)
(declare-fun mul_n21 () FF0)
(declare-fun x5_n9 () FF0)
(declare-fun mul_n20 () FF0)
(declare-fun x4_n2 () FF0)
(declare-fun mul_n19 () FF0)
(declare-fun x3_n6 () FF0)
(declare-fun mul_n18 () FF0)
(declare-fun x2_n16 () FF0)
(declare-fun mul_n17 () FF0)
(declare-fun x1_n11 () FF0)
(declare-fun x0_n4 () FF0)
(declare-fun x8_n1 () FF0)
(assert 
  (let ((let0 x15))
  (let ((let1 x14))
  (let ((let2 x13))
  (let ((let3 x12))
  (let ((let4 x11))
  (let ((let5 x10))
  (let ((let6 x9))
  (let ((let7 x8))
  (let ((let8 x7))
  (let ((let9 x6))
  (let ((let10 x5))
  (let ((let11 x4))
  (let ((let12 x3))
  (let ((let13 x2))
  (let ((let14 x1))
  (let ((let15 x0))
  (let ((let16 (or let15 let14 let13 let12 let11 let10 let9 let8 let7 let6 let5 let4 let3 let2 let1 let0)))
  (let ((let17 return_n15))
  (let ((let18 (as ff1 FF0)))
  (let ((let19 (= let18 let17)))
  (let ((let20 (= let19 let16)))
  (let ((let21 (as ff0 FF0)))
  (let ((let22 (= let21 let17)))
  (let ((let23 (or let19 let22)))
  (let ((let24 (and let23 let20)))
  (let ((let25 (as ff52435875175126190479447740508185965837690552500527637822603658699938581184512 FF0)))
  (let ((let26 (ff.mul let17 let25)))
  (let ((let27 (ff.add let26 let18)))
  (let ((let28 x15_n13))
  (let ((let29 (ff.mul let28 let25)))
  (let ((let30 (ff.add let29 let18)))
  (let ((let31 mul_n30))
  (let ((let32 (ff.mul let31 let30)))
  (let ((let33 (= let32 let27)))
  (let ((let34 x14_n5))
  (let ((let35 (ff.mul let34 let25)))
  (let ((let36 (ff.add let35 let18)))
  (let ((let37 mul_n29))
  (let ((let38 (ff.mul let37 let36)))
  (let ((let39 (= let38 let31)))
  (let ((let40 x13_n7))
  (let ((let41 (ff.mul let40 let25)))
  (let ((let42 (ff.add let41 let18)))
  (let ((let43 mul_n28))
  (let ((let44 (ff.mul let43 let42)))
  (let ((let45 (= let44 let37)))
  (let ((let46 x12_n0))
  (let ((let47 (ff.mul let46 let25)))
  (let ((let48 (ff.add let47 let18)))
  (let ((let49 mul_n27))
  (let ((let50 (ff.mul let49 let48)))
  (let ((let51 (= let50 let43)))
  (let ((let52 x11_n10))
  (let ((let53 (ff.mul let52 let25)))
  (let ((let54 (ff.add let53 let18)))
  (let ((let55 mul_n26))
  (let ((let56 (ff.mul let55 let54)))
  (let ((let57 (= let56 let49)))
  (let ((let58 x10_n3))
  (let ((let59 (ff.mul let58 let25)))
  (let ((let60 (ff.add let59 let18)))
  (let ((let61 mul_n25))
  (let ((let62 (ff.mul let61 let60)))
  (let ((let63 (= let62 let55)))
  (let ((let64 x9_n8))
  (let ((let65 (ff.mul let64 let25)))
  (let ((let66 (ff.add let65 let18)))
  (let ((let67 mul_n24))
  (let ((let68 (ff.mul let67 let66)))
  (let ((let69 (= let68 let61)))
  (let ((let70 mul_n23))
  (let ((let71 x7_n12))
  (let ((let72 (ff.mul let71 let25)))
  (let ((let73 (ff.add let72 let18)))
  (let ((let74 mul_n22))
  (let ((let75 (ff.mul let74 let73)))
  (let ((let76 (= let75 let70)))
  (let ((let77 x6_n14))
  (let ((let78 (ff.mul let77 let25)))
  (let ((let79 (ff.add let78 let18)))
  (let ((let80 mul_n21))
  (let ((let81 (ff.mul let80 let79)))
  (let ((let82 (= let81 let74)))
  (let ((let83 x5_n9))
  (let ((let84 (ff.mul let83 let25)))
  (let ((let85 (ff.add let84 let18)))
  (let ((let86 mul_n20))
  (let ((let87 (ff.mul let86 let85)))
  (let ((let88 (= let87 let80)))
  (let ((let89 x4_n2))
  (let ((let90 (ff.mul let89 let25)))
  (let ((let91 (ff.add let90 let18)))
  (let ((let92 mul_n19))
  (let ((let93 (ff.mul let92 let91)))
  (let ((let94 (= let93 let86)))
  (let ((let95 x3_n6))
  (let ((let96 (ff.mul let95 let25)))
  (let ((let97 (ff.add let96 let18)))
  (let ((let98 mul_n18))
  (let ((let99 (ff.mul let98 let97)))
  (let ((let100 (= let99 let92)))
  (let ((let101 x2_n16))
  (let ((let102 (ff.mul let101 let25)))
  (let ((let103 (ff.add let102 let18)))
  (let ((let104 mul_n17))
  (let ((let105 (ff.mul let104 let103)))
  (let ((let106 (= let105 let98)))
  (let ((let107 x1_n11))
  (let ((let108 (ff.mul let107 let25)))
  (let ((let109 (ff.add let108 let18)))
  (let ((let110 x0_n4))
  (let ((let111 (ff.mul let110 let25)))
  (let ((let112 (ff.add let111 let18)))
  (let ((let113 (ff.mul let112 let109)))
  (let ((let114 (= let113 let104)))
  (let ((let115 (and let114 let106 let100 let94 let88 let82 let76 let69 let63 let57 let51 let45 let39 let33)))
  (let ((let116 (ite let6 let18 let21)))
  (let ((let117 (= let64 let116)))
  (let ((let118 (ite let11 let18 let21)))
  (let ((let119 (= let89 let118)))
  (let ((let120 (ite let1 let18 let21)))
  (let ((let121 (= let34 let120)))
  (let ((let122 (ite let14 let18 let21)))
  (let ((let123 (= let107 let122)))
  (let ((let124 (ite let9 let18 let21)))
  (let ((let125 (= let77 let124)))
  (let ((let126 (ite let15 let18 let21)))
  (let ((let127 (= let110 let126)))
  (let ((let128 (ite let2 let18 let21)))
  (let ((let129 (= let40 let128)))
  (let ((let130 (ite let13 let18 let21)))
  (let ((let131 (= let101 let130)))
  (let ((let132 (ite let4 let18 let21)))
  (let ((let133 (= let52 let132)))
  (let ((let134 (ite let10 let18 let21)))
  (let ((let135 (= let83 let134)))
  (let ((let136 (ite let5 let18 let21)))
  (let ((let137 (= let58 let136)))
  (let ((let138 (ite let8 let18 let21)))
  (let ((let139 (= let71 let138)))
  (let ((let140 (ite let0 let18 let21)))
  (let ((let141 (= let28 let140)))
  (let ((let142 (ite let7 let18 let21)))
  (let ((let143 x8_n1))
  (let ((let144 (= let143 let142)))
  (let ((let145 (ite let3 let18 let21)))
  (let ((let146 (= let46 let145)))
  (let ((let147 (ite let12 let18 let21)))
  (let ((let148 (= let95 let147)))
  (let ((let149 (and let148 let146 let144 let141 let139 let137 let135 let133 let131 let129 let127 let125 let123 let121 let119 let117)))
  (let ((let150 (and let149 let115)))
  (let ((let151 (=> let150 let24)))
  (let ((let152 (not let151)))
  let152
)))))))))))))))))))))))))))))))))))))))))))))))))))))))))))))))))))))))))))))))))))))))))))))))))))))))))))))))))))))))))))))))))))))))))))))))))))))))))
)
(check-sat)
